# sp hf/sto-3g

Point No. $sn, distance: $dist

0 1
$coords

Junk

