# sp hf/sto-3g

Point No. {{ sn }}, distance: {{ distance }}, translated by {{ translation }}

0 1
{% for atom in atoms -%}
{{ atom.element }} {% for i in atom.coords %}{{ i }} {% endfor %}
{% endfor %}
