# Just one atom at the origin
H 0.0  0.0  0.0
